100
32
30
19
22
15
7
10
6
27
1
11
1
27
3
24
6
6
7
24
11
3
10
10
17
3
1
1
1
3
1
12
16
1
1
19
2
2
2
1
5
1
3
21
5
2
2
2
1
19
1
2
1
4
1
1
6
2
3
1
1
17
3
23
1
1
1
2
1
1
1
2
3
1
17
3
1
2
1
2
2
2
3
1
21
3
11
1
3
3
2
1
17
3
2
1
2
1
1
1
20
2